1
200
3
198
4
197
5
6
7
8
9
10
11
12
13
14
15
16
17
20
203
19
18
22
21
23
24
208
25
26
34
33
35
30
202
206
31
216
219
217
77
78
79
80
81
95
209
96
97
98
99
100
101
102
103
104
220
105
106
107
108
109
110
111
112
113
114
115
223
116
117
187
118
119
186
185
120
175
121
122
123
124
125
126
127
128
129
222
130
211
131
86
85
82
83
84
210
87
90
91
92
93
94
221
28
204
29
32
38
37
36
39
40
41
42
43
44
46
194
218
193
45
48
196
192
191
199
133
190
225
47
2
207
49
51
57
56
55
52
53
54
70
71
72
73
74
75
76
69
68
67
66
65
64
63
62
61
60
59
58
50
224
205
189
27
188
184
182
173
181
174
180
179
176
177
178
172
171
170
169
168
212
214
151
150
149
152
153
154
155
156
157
144
143
201
142
141
140
139
138
137
136
183
135
134
215
164
165
166
167
213
158
163
162
161
160
159
146
147
148
145
132
88
89
195
1
